
Log started (V11.0.0) Sun Apr 13 13:37:35 2008

Tried aggregator 1 time.
Reduced MIP has 220 rows, 4001 columns, and 8020 nonzeros.
Presolve time =    0.02 sec.
Clique table members: 200.
MIP emphasis: balance optimality and feasibility.
MIP search method: dynamic search.
Parallel mode: none, using 1 thread.
Root relaxation solution time =    0.09 sec.

        Nodes                                         Cuts/
   Node  Left     Objective  IInf  Best Integer     Best Node    ItCnt     Gap

*     0+    0                         9276.0000       51.5620      504   99.44%
*     0+    0                           60.0000       51.5620      504   14.06%
      0     0       52.0000    36       60.0000      Fract: 8      525   13.33%
*     0+    0                           58.0000       52.0000      525   10.34%
      0     0       52.0000    33       58.0000     Covers: 1      546   10.34%
*     0+    0                           57.0000       52.0000      546    8.77%
      0     0       52.0000    36       57.0000     Covers: 2      562    8.77%
      0     0       52.0000    38       57.0000     Covers: 2      609    8.77%
*     0+    0                           56.0000       52.0000      609    7.14%

Repeating presolve.
Tried aggregator 1 time.
MIP Presolve eliminated 0 rows and 1840 columns.
Reduced MIP has 220 rows, 2161 columns, and 4340 nonzeros.
Tried aggregator 1 time.
Represolve time =    0.09 sec.
Clique table members: 409.
MIP emphasis: balance optimality and feasibility.
MIP search method: dynamic search.
Parallel mode: none, using 1 thread.
Root relaxation solution time =    0.05 sec.

        Nodes                                         Cuts/
   Node  Left     Objective  IInf  Best Integer     Best Node    ItCnt     Gap

      0     0       52.0000    32       56.0000       52.0000      410    7.14%
*     0+    0                           55.0000       52.0000      410    5.45%
*     0+    0                           54.0000       52.0000      410    3.70%
      0     2       52.0000    32       54.0000       52.0000      410    3.70%
    100    66       53.0000    38       54.0000       52.0000     4699    3.70%
*   180+   29                           53.0000       52.0000     7526    1.89%
    200    15    infeasible             53.0000       52.0000    11807    1.89%

Cover cuts applied:  82
Gomory fractional cuts applied:  2

Solution pool: 8 solutions saved.

MIP - Integer optimal solution:  Objective = 5.3000000000e+001
Solution time =    4.28 sec.  Iterations = 17246  Nodes = 216


Incumbent solution
Variable Name           Solution Value
Cmax                         53.000000
X_1_3                         1.000000
X_2_7                         1.000000
X_3_7                         1.000000
X_4_5                         1.000000
X_5_16                        1.000000
X_6_2                         1.000000
X_7_1                         1.000000
X_8_19                        1.000000
X_9_14                        1.000000
X_10_16                       1.000000
X_11_3                        1.000000
X_12_4                        1.000000
X_13_15                       1.000000
X_14_18                       1.000000
X_15_11                       1.000000
X_16_19                       1.000000
X_17_9                        1.000000
X_18_15                       1.000000
X_19_19                       1.000000
X_20_9                        1.000000
X_21_10                       1.000000
X_22_17                       1.000000
X_23_5                        1.000000
X_24_9                        1.000000
X_25_2                        1.000000
X_26_15                       1.000000
X_27_11                       1.000000
X_28_8                        1.000000
X_29_11                       1.000000
X_30_13                       1.000000
X_31_15                       1.000000
X_32_7                        1.000000
X_33_1                        1.000000
X_34_1                        1.000000
X_35_13                       1.000000
X_36_20                       1.000000
X_37_12                       1.000000
X_38_7                        1.000000
X_39_16                       1.000000
X_40_16                       1.000000
X_41_8                        1.000000
X_42_12                       1.000000
X_43_19                       1.000000
X_44_6                        1.000000
X_45_3                        1.000000
X_46_17                       1.000000
X_47_4                        1.000000
X_48_19                       1.000000
X_49_3                        1.000000
X_50_14                       1.000000
X_51_17                       1.000000
X_52_6                        1.000000
X_53_19                       1.000000
X_54_20                       1.000000
X_55_6                        1.000000
X_56_16                       1.000000
X_57_11                       1.000000
X_58_4                        1.000000
X_59_20                       1.000000
X_60_10                       1.000000
X_61_13                       1.000000
X_62_2                        1.000000
X_63_15                       1.000000
X_64_17                       1.000000
X_65_14                       1.000000
X_66_3                        1.000000
X_67_9                        1.000000
X_68_6                        1.000000
X_69_4                        1.000000
X_70_13                       1.000000
X_71_19                       1.000000
X_72_12                       1.000000
X_73_5                        1.000000
X_74_1                        1.000000
X_75_11                       1.000000
X_76_18                       1.000000
X_77_6                        1.000000
X_78_16                       1.000000
X_79_7                        1.000000
X_80_5                        1.000000
X_81_4                        1.000000
X_82_18                       1.000000
X_83_16                       1.000000
X_84_20                       1.000000
X_85_2                        1.000000
X_86_20                       1.000000
X_87_3                        1.000000
X_88_5                        1.000000
X_89_9                        1.000000
X_90_5                        1.000000
X_91_10                       1.000000
X_92_5                        1.000000
X_93_17                       1.000000
X_94_19                       1.000000
X_95_11                       1.000000
X_96_15                       1.000000
X_97_2                        1.000000
X_98_4                        1.000000
X_99_11                       1.000000
X_100_13                      1.000000
X_101_11                      1.000000
X_102_20                      1.000000
X_103_20                      1.000000
X_104_16                      1.000000
X_105_6                       1.000000
X_106_15                      1.000000
X_107_4                       1.000000
X_108_2                       1.000000
X_109_12                      1.000000
X_110_13                      1.000000
X_111_4                       1.000000
X_112_10                      1.000000
X_113_9                       1.000000
X_114_1                       1.000000
X_115_9                       1.000000
X_116_16                      1.000000
X_117_17                      1.000000
X_118_11                      1.000000
X_119_16                      1.000000
X_120_16                      1.000000
X_121_20                      1.000000
X_122_20                      1.000000
X_123_10                      1.000000
X_124_7                       1.000000
X_125_8                       1.000000
X_126_1                       1.000000
X_127_2                       1.000000
X_128_13                      1.000000
X_129_16                      1.000000
X_130_18                      1.000000
X_131_16                      1.000000
X_132_7                       1.000000
X_133_15                      1.000000
X_134_7                       1.000000
X_135_2                       1.000000
X_136_7                       1.000000
X_137_3                       1.000000
X_138_5                       1.000000
X_139_1                       1.000000
X_140_8                       1.000000
X_141_17                      1.000000
X_142_14                      1.000000
X_143_14                      1.000000
X_144_16                      1.000000
X_145_14                      1.000000
X_146_3                       1.000000
X_147_14                      1.000000
X_148_11                      1.000000
X_149_9                       1.000000
X_150_1                       1.000000
X_151_19                      1.000000
X_152_1                       1.000000
X_153_2                       1.000000
X_154_10                      1.000000
X_155_6                       1.000000
X_156_1                       1.000000
X_157_15                      1.000000
X_158_8                       1.000000
X_159_13                      1.000000
X_160_20                      1.000000
X_161_15                      1.000000
X_162_11                      1.000000
X_163_10                      1.000000
X_164_8                       1.000000
X_165_3                       1.000000
X_166_20                      1.000000
X_167_6                       1.000000
X_168_18                      1.000000
X_169_12                      1.000000
X_170_15                      1.000000
X_171_17                      1.000000
X_172_16                      1.000000
X_173_19                      1.000000
X_174_11                      1.000000
X_175_10                      1.000000
X_176_5                       1.000000
X_177_12                      1.000000
X_178_13                      1.000000
X_179_13                      1.000000
X_180_10                      1.000000
X_181_17                      1.000000
X_182_17                      1.000000
X_183_8                       1.000000
X_184_1                       1.000000
X_185_14                      1.000000
X_186_18                      1.000000
X_187_17                      1.000000
X_188_4                       1.000000
X_189_12                      1.000000
X_190_6                       1.000000
X_191_15                      1.000000
X_192_15                      1.000000
X_193_7                       1.000000
X_194_17                      1.000000
X_195_19                      1.000000
X_196_14                      1.000000
X_197_8                       1.000000
X_198_8                       1.000000
X_199_9                       1.000000
X_200_20                      1.000000
All other variables in the range 1-4001 are 0.
